N = 7;
H = 5;
T = 2;

avail = array3d(1..N, 1..H, 1..T, [1, 3, 4, 10, 7, 0, 0, 2, 4, 0, 4, 4, 1, 10, 4, 7, 7, 10, 5, 10, 1, 9, 10, 4, 4, 1, 1, 6, 1, 10, 0, 1, 1, 7, 6, 10, 8, 5, 4, 5, 2, 5, 2, 9, 6, 10, 7, 1, 4, 9, 4, 1, 2, 3, 7, 3, 1, 1, 4, 8, 6, 9, 8, 1, 8, 2, 10, 5, 10, 10]);

r = array2d(1..H, 1..T, [3, 4, 2, 2, 2, 2, 2, 3, 3, 2]);
